NAME : tsp35_3.207.tour
COMMENT : Length = 207
COMMENT : Found by LKH [Keld Helsgaun]
TYPE : TOUR
DIMENSION : 35
TOUR_SECTION
1
9
5
26
18
11
19
22
25
17
7
28
12
14
8
16
20
34
29
13
21
23
3
31
24
2
35
27
15
33
6
10
4
32
30
-1
EOF
